ALGO = Fast
EDIFF = 5e-05
ENCUT = 520
IBRION = 2
ISIF = 3
ISMEAR = -5
ISPIN = 2
LASPH = True
LORBIT = 11
LREAL = Auto
LWAVE = False
MAGMOM = 1*0.6
NELM = 100
NELMIN = 5
NSW = 99
PREC = Accurate
SIGMA = 0.05
