pymatgen with grid density = 962 / number of atoms
0
Gamma
9 9 9
