Al1
1.0
   0.8248881578741932    2.3331360406132857    1.4287482000000002
   0.8248881578741932    2.3331360406132857   -1.4287481999999998
  -1.6497763157483862    2.3331360406132857   -0.0000000000000000
Al
1
direct
   0.0000000000000000    0.0000000000000000    0.0000000000000000 Al
