#========================================================================
# FHI-aims geometry file: /Users/shyue/repos/matgenb/notebooks/workdir/geometry.in
# File generated from pymatgen
# Fri Jun 28 09:59:56 2024
#========================================================================
lattice_vector  0.000000000000e+00  2.715000000000e+00  2.715000000000e+00
lattice_vector  2.715000000000e+00  0.000000000000e+00  2.715000000000e+00
lattice_vector  2.715000000000e+00  2.715000000000e+00  0.000000000000e+00
atom  0.000000000000e+00  0.000000000000e+00  0.000000000000e+00 Si
atom  1.357500000000e+00  1.357500000000e+00  1.357500000000e+00 Si
