Cs3 Li1 Cl4
1.0
   8.4000000000000004    0.0000000000000000    0.0000000000000000
   0.0000000000000000    8.4000000000000004    0.0000000000000000
   0.0000000000000000    0.0000000000000000    4.2000000000000002
Cs Cl Li
3 4 1
direct
   0.0100000000000000    0.5000000000000000    0.0000000000000000 Cs
   0.5000000000000000    0.0000000000000000    0.0000000000000000 Cs
   0.5000000000000000    0.5000000000000000    0.0000000000000000 Cs
   0.2500000000000000    0.2500000000000000    0.5000000000000000 Cl
   0.2500000000000000    0.7500000000000000    0.5000000000000000 Cl
   0.7500000000000000    0.2500000000000000    0.5000000000000000 Cl
   0.7500000000000000    0.7500000000000000    0.5000000000000000 Cl
   0.0000000000000000    0.0000000000000000    0.0000000000000000 Li
