ALGO = All
EDIFF = 1e-05
ENAUG = 1360.0
ENCUT = 680.0
ICHARG = 1
ISMEAR = -5
ISPIN = 2
KPOINT_BSE = -1 0 0 0
LAECHG = True
LASPH = True
LCHARG = True
LELF = True
LMIXTAU = -1
LORBIT = 11
LREAL = False
LVTOT = True
LWAVE = False
MAGMOM = 1*0.6
METAGGA = R2scan
NELM = 60
NSW = 0
PREC = Accurate
SIGMA = 0.5
