Al1
1.0
   0.0000000000000000    2.0205550799999998    2.0205550799999998
   2.0205550799999998    0.0000000000000000    2.0205550799999998
   2.0205550799999998    2.0205550799999998   -0.0000000000000000
Al
1
direct
   0.0000000000000000    0.0000000000000000    0.0000000000000000 Al
