ga4 as4
1.0
        5.7501826286         0.0000000000         0.0000000000
        0.0000000000         5.7501826286         0.0000000000
        0.0000000000         0.0000000000         5.7501826286
   Ga   As
    4    4
Direct
     0.000000000         0.000000000         0.000000000
     0.000000000         0.500000000         0.500000000
     0.500000000         0.000000000         0.500000000
     0.500000000         0.500000000         0.000000000
     0.250000000         0.250000000         0.250000000
     0.749999979         0.749999979         0.250000000
     0.749999979         0.250000000         0.749999979
     0.250000000         0.749999979         0.749999979

