ALGO = All
EDIFF = 1e-05
ENAUG = 1360.0
ENCUT = 680.0
ICHARG = 11
ISMEAR = 0
ISPIN = 1
ISYM = 0
KPOINT_BSE = -1 0 0 0
LAECHG = False
LASPH = True
LCHARG = False
LELF = True
LMIXTAU = -1
LORBIT = 11
LREAL = Auto
LVHAR = False
LVTOT = True
LWAVE = False
METAGGA = R2scan
NBANDS = 6
NELM = 200
NSW = 0
PREC = Accurate
SIGMA = 0.2
