Non SCF run along symmetry lines
213
Reciprocal
0.0 0.0 0.0 1 \Gamma
0.015625 0.0 0.015625 1 
0.03125 0.0 0.03125 1 
0.046875 0.0 0.046875 1 
0.0625 0.0 0.0625 1 
0.078125 0.0 0.078125 1 
0.09375 0.0 0.09375 1 
0.10937500000000001 0.0 0.10937500000000001 1 
0.125 0.0 0.125 1 
0.140625 0.0 0.140625 1 
0.15625 0.0 0.15625 1 
0.17187500000000003 0.0 0.17187500000000003 1 
0.1875 0.0 0.1875 1 
0.203125 0.0 0.203125 1 
0.21875000000000003 0.0 0.21875000000000003 1 
0.23437500000000003 0.0 0.23437500000000003 1 
0.25 0.0 0.25 1 
0.265625 0.0 0.265625 1 
0.28125 0.0 0.28125 1 
0.296875 0.0 0.296875 1 
0.3125 0.0 0.3125 1 
0.328125 0.0 0.328125 1 
0.34375000000000006 0.0 0.34375000000000006 1 
0.359375 0.0 0.359375 1 
0.375 0.0 0.375 1 
0.39062500000000006 0.0 0.39062500000000006 1 
0.40625 0.0 0.40625 1 
0.42187500000000006 0.0 0.42187500000000006 1 
0.43750000000000006 0.0 0.43750000000000006 1 
0.453125 0.0 0.453125 1 
0.46875000000000006 0.0 0.46875000000000006 1 
0.484375 0.0 0.484375 1 
0.5 0.0 0.5 1 X
0.5 0.0 0.5 1 X
0.5 0.015625 0.515625 1 
0.5 0.03125 0.53125 1 
0.5 0.04687500000000001 0.546875 1 
0.5 0.0625 0.5625 1 
0.5 0.078125 0.578125 1 
0.5 0.09375000000000001 0.59375 1 
0.5 0.10937500000000001 0.609375 1 
0.5 0.125 0.625 1 
0.5000000000000001 0.140625 0.6406250000000001 1 
0.5000000000000001 0.15625 0.6562500000000001 1 
0.5000000000000001 0.17187500000000003 0.6718750000000001 1 
0.5000000000000001 0.18750000000000003 0.6875000000000001 1 
0.5000000000000001 0.203125 0.7031250000000001 1 
0.5000000000000001 0.21875000000000003 0.7187500000000001 1 
0.5000000000000001 0.23437500000000003 0.7343750000000001 1 
0.5000000000000001 0.25 0.7500000000000001 1 W
0.5000000000000001 0.25 0.7500000000000001 1 W
0.4886363636363637 0.2613636363636364 0.7500000000000001 1 
0.4772727272727273 0.27272727272727276 0.75 1 
0.465909090909091 0.2840909090909091 0.7500000000000001 1 
0.45454545454545464 0.29545454545454547 0.7500000000000001 1 
0.4431818181818183 0.3068181818181819 0.7500000000000001 1 
0.4318181818181819 0.31818181818181823 0.7500000000000001 1 
0.4204545454545455 0.3295454545454546 0.7500000000000001 1 
0.4090909090909091 0.34090909090909094 0.75 1 
0.3977272727272728 0.35227272727272735 0.7500000000000001 1 
0.38636363636363646 0.3636363636363637 0.7500000000000001 1 
0.37500000000000006 0.3750000000000001 0.7500000000000001 1 K
0.37500000000000006 0.3750000000000001 0.7500000000000001 1 K
0.3636363636363637 0.3636363636363637 0.7272727272727274 1 
0.35227272727272735 0.35227272727272735 0.7045454545454546 1 
0.34090909090909094 0.34090909090909094 0.6818181818181819 1 
0.32954545454545464 0.32954545454545464 0.6590909090909093 1 
0.31818181818181823 0.3181818181818183 0.6363636363636365 1 
0.3068181818181819 0.3068181818181819 0.6136363636363638 1 
0.2954545454545455 0.2954545454545455 0.5909090909090909 1 
0.28409090909090917 0.28409090909090917 0.5681818181818182 1 
0.2727272727272728 0.2727272727272729 0.5454545454545455 1 
0.26136363636363646 0.26136363636363646 0.5227272727272728 1 
0.2500000000000001 0.2500000000000001 0.5000000000000001 1 
0.2386363636363637 0.23863636363636373 0.4772727272727274 1 
0.22727272727272732 0.22727272727272735 0.45454545454545464 1 
0.21590909090909094 0.21590909090909097 0.4318181818181819 1 
0.2045454545454546 0.2045454545454546 0.40909090909090917 1 
0.19318181818181823 0.19318181818181823 0.38636363636363646 1 
0.18181818181818185 0.18181818181818185 0.3636363636363637 1 
0.1704545454545455 0.17045454545454553 0.340909090909091 1 
0.1590909090909091 0.15909090909090912 0.3181818181818182 1 
0.14772727272727276 0.14772727272727276 0.29545454545454547 1 
0.1363636363636364 0.1363636363636364 0.27272727272727276 1 
0.12500000000000006 0.12500000000000006 0.25000000000000006 1 
0.11363636363636363 0.11363636363636363 0.22727272727272724 1 
0.10227272727272728 0.10227272727272729 0.20454545454545456 1 
0.09090909090909094 0.09090909090909095 0.18181818181818188 1 
0.07954545454545456 0.07954545454545457 0.15909090909090912 1 
0.0681818181818182 0.0681818181818182 0.13636363636363638 1 
0.056818181818181816 0.056818181818181816 0.11363636363636362 1 
0.045454545454545435 0.04545454545454544 0.09090909090909087 1 
0.03409090909090914 0.03409090909090914 0.06818181818181826 1 
0.022727272727272683 0.022727272727272683 0.045454545454545366 1 
0.011363636363636376 0.011363636363636378 0.022727272727272752 1 
0.0 0.0 0.0 1 \Gamma
0.0 0.0 0.0 1 \Gamma
0.01851851851851852 0.01851851851851852 0.01851851851851852 1 
0.03703703703703704 0.03703703703703704 0.03703703703703704 1 
0.055555555555555566 0.055555555555555566 0.05555555555555556 1 
0.07407407407407408 0.07407407407407408 0.07407407407407408 1 
0.09259259259259262 0.0925925925925926 0.0925925925925926 1 
0.11111111111111113 0.11111111111111113 0.11111111111111112 1 
0.12962962962962965 0.12962962962962965 0.12962962962962965 1 
0.14814814814814817 0.14814814814814817 0.14814814814814817 1 
0.1666666666666667 0.1666666666666667 0.16666666666666669 1 
0.18518518518518523 0.1851851851851852 0.1851851851851852 1 
0.20370370370370375 0.20370370370370375 0.20370370370370372 1 
0.22222222222222227 0.22222222222222227 0.22222222222222224 1 
0.24074074074074078 0.24074074074074076 0.24074074074074073 1 
0.2592592592592593 0.2592592592592593 0.2592592592592593 1 
0.27777777777777785 0.27777777777777785 0.27777777777777785 1 
0.29629629629629634 0.29629629629629634 0.29629629629629634 1 
0.31481481481481494 0.31481481481481494 0.3148148148148149 1 
0.3333333333333334 0.3333333333333334 0.33333333333333337 1 
0.3518518518518519 0.3518518518518519 0.3518518518518519 1 
0.37037037037037046 0.3703703703703704 0.3703703703703704 1 
0.388888888888889 0.388888888888889 0.38888888888888895 1 
0.4074074074074075 0.4074074074074075 0.40740740740740744 1 
0.42592592592592604 0.425925925925926 0.425925925925926 1 
0.44444444444444453 0.44444444444444453 0.4444444444444445 1 
0.462962962962963 0.4629629629629631 0.462962962962963 1 
0.48148148148148157 0.4814814814814815 0.48148148148148145 1 
0.5000000000000001 0.5000000000000001 0.5000000000000001 1 L
0.5000000000000001 0.5000000000000001 0.5000000000000001 1 L
0.5062500000000001 0.4875000000000001 0.5062500000000001 1 
0.5125000000000002 0.47500000000000014 0.5125000000000002 1 
0.5187500000000002 0.4625000000000001 0.51875 1 
0.5250000000000001 0.45000000000000007 0.5250000000000001 1 
0.5312500000000001 0.4375000000000001 0.5312500000000001 1 
0.5375000000000002 0.4250000000000001 0.5375000000000001 1 
0.5437500000000001 0.4125000000000001 0.5437500000000001 1 
0.5500000000000002 0.40000000000000013 0.5500000000000002 1 
0.5562500000000001 0.3875000000000001 0.5562500000000001 1 
0.5625000000000001 0.37500000000000006 0.5625 1 
0.5687500000000002 0.3625000000000001 0.5687500000000001 1 
0.5750000000000002 0.3500000000000001 0.5750000000000001 1 
0.5812500000000002 0.3375000000000001 0.58125 1 
0.5875000000000001 0.3250000000000001 0.5875 1 
0.5937500000000001 0.3125000000000001 0.59375 1 
0.6000000000000002 0.3000000000000001 0.6000000000000001 1 
0.6062500000000002 0.2875000000000001 0.6062500000000001 1 
0.6125000000000003 0.27500000000000013 0.6125000000000002 1 
0.6187500000000001 0.2625000000000001 0.61875 1 
0.6250000000000002 0.2500000000000001 0.6250000000000001 1 U
0.6250000000000002 0.2500000000000001 0.6250000000000001 1 U
0.6136363636363638 0.2500000000000001 0.6363636363636365 1 
0.6022727272727274 0.2500000000000001 0.6477272727272728 1 
0.590909090909091 0.2500000000000001 0.6590909090909092 1 
0.5795454545454547 0.25000000000000006 0.6704545454545455 1 
0.5681818181818183 0.25000000000000006 0.6818181818181819 1 
0.556818181818182 0.25000000000000006 0.6931818181818182 1 
0.5454545454545455 0.25000000000000006 0.7045454545454546 1 
0.5340909090909092 0.25000000000000006 0.7159090909090909 1 
0.5227272727272728 0.25000000000000006 0.7272727272727274 1 
0.5113636363636365 0.25 0.7386363636363636 1 
0.5000000000000001 0.25 0.7500000000000001 1 W
0.5000000000000001 0.25 0.7500000000000001 1 W
0.5000000000000001 0.2613636363636364 0.7386363636363636 1 
0.5 0.27272727272727276 0.7272727272727273 1 
0.5000000000000001 0.2840909090909091 0.7159090909090909 1 
0.5000000000000001 0.2954545454545455 0.7045454545454546 1 
0.5000000000000001 0.3068181818181819 0.6931818181818182 1 
0.5000000000000001 0.31818181818181823 0.6818181818181819 1 
0.5000000000000001 0.3295454545454546 0.6704545454545455 1 
0.5000000000000001 0.340909090909091 0.6590909090909092 1 
0.5000000000000001 0.35227272727272735 0.6477272727272727 1 
0.5000000000000001 0.3636363636363637 0.6363636363636365 1 
0.5000000000000001 0.37500000000000006 0.6250000000000001 1 
0.5000000000000001 0.3863636363636364 0.6136363636363636 1 
0.5000000000000001 0.39772727272727276 0.6022727272727273 1 
0.5000000000000001 0.4090909090909091 0.5909090909090909 1 
0.5 0.42045454545454547 0.5795454545454545 1 
0.5000000000000001 0.4318181818181819 0.5681818181818182 1 
0.5000000000000001 0.44318181818181823 0.556818181818182 1 
0.5000000000000001 0.4545454545454546 0.5454545454545455 1 
0.5000000000000001 0.465909090909091 0.5340909090909092 1 
0.5000000000000001 0.47727272727272735 0.5227272727272728 1 
0.5000000000000001 0.48863636363636376 0.5113636363636365 1 
0.5000000000000001 0.5000000000000001 0.5000000000000001 1 L
0.5000000000000001 0.5000000000000001 0.5000000000000001 1 L
0.49375000000000013 0.4937500000000001 0.5125000000000001 1 
0.4875000000000001 0.48750000000000016 0.5250000000000001 1 
0.4812500000000001 0.4812500000000001 0.5375000000000001 1 
0.4750000000000001 0.4750000000000001 0.5500000000000002 1 
0.4687500000000001 0.4687500000000001 0.5625 1 
0.46250000000000013 0.4625000000000001 0.5750000000000001 1 
0.4562500000000001 0.45625000000000016 0.5875 1 
0.4500000000000001 0.4500000000000001 0.6000000000000001 1 
0.44375000000000014 0.4437500000000001 0.6125 1 
0.4375000000000001 0.4375000000000001 0.625 1 
0.4312500000000001 0.43125000000000013 0.6375000000000001 1 
0.4250000000000001 0.4250000000000001 0.65 1 
0.4187500000000001 0.4187500000000001 0.6625 1 
0.41250000000000014 0.4125000000000001 0.675 1 
0.40625000000000006 0.4062500000000001 0.6875 1 
0.4000000000000001 0.4000000000000001 0.7000000000000001 1 
0.3937500000000001 0.3937500000000001 0.7125 1 
0.38750000000000007 0.3875000000000001 0.7250000000000001 1 
0.38125000000000014 0.38125000000000014 0.7375000000000002 1 
0.37500000000000006 0.3750000000000001 0.7500000000000001 1 K
0.6250000000000002 0.2500000000000001 0.6250000000000001 1 U
0.6136363636363638 0.22727272727272738 0.6136363636363638 1 
0.6022727272727274 0.2045454545454546 0.6022727272727273 1 
0.590909090909091 0.1818181818181819 0.590909090909091 1 
0.5795454545454547 0.15909090909090914 0.5795454545454546 1 
0.5681818181818183 0.13636363636363644 0.5681818181818182 1 
0.5568181818181819 0.11363636363636369 0.5568181818181819 1 
0.5454545454545455 0.09090909090909095 0.5454545454545455 1 
0.5340909090909091 0.06818181818181819 0.5340909090909091 1 
0.5227272727272727 0.04545454545454546 0.5227272727272727 1 
0.5113636363636364 0.02272727272727274 0.5113636363636364 1 
0.5 0.0 0.5 1 X
