Si2
1.0
  -2.7218511849999998   -2.7218511849999998    0.0000000000000000
  -2.7218511849999998    0.0000000000000000   -2.7218511849999998
   0.0000000000000002   -2.7218511849999998   -2.7218511849999998
Si
2
direct
   0.0000000000000000    0.0000000000000000    0.0000000000000000 Si
   0.7500000000000000    0.7500000000000000    0.7500000000000000 Si
